

******************************************************************************
This program contains Ipopt, a library for large-scale nonlinear optimization.
 Ipopt is released as open source code under the Eclipse Public License (EPL).
         For more information visit https://github.com/coin-or/Ipopt
******************************************************************************

This is Ipopt version 3.14.11, running with linear solver MUMPS 5.5.1.

Number of nonzeros in equality constraint Jacobian...:       11
Number of nonzeros in inequality constraint Jacobian.:       20
Number of nonzeros in Lagrangian Hessian.............:       14

Total number of variables............................:       10
                     variables with only lower bounds:        0
                variables with lower and upper bounds:       10
                     variables with only upper bounds:        0
Total number of equality constraints.................:        3
Total number of inequality constraints...............:        8
        inequality constraints with only lower bounds:        8
   inequality constraints with lower and upper bounds:        0
        inequality constraints with only upper bounds:        0

iter    objective    inf_pr   inf_du lg(mu)  ||d||  lg(rg) alpha_du alpha_pr  ls
   0 -8.7238720e+02 1.03e+03 1.72e+01  -1.0 0.00e+00    -  0.00e+00 0.00e+00   0
   1 -8.4886161e+02 1.03e+03 1.74e+01  -1.0 1.03e+03    -  1.86e-02 7.45e-03h  1
   2 -8.0372935e+02 1.01e+03 1.77e+01  -1.0 1.02e+03    -  3.27e-02 1.23e-02h  1
   3 -7.2408709e+02 1.00e+03 2.16e+01  -1.0 1.61e+03    -  4.62e-02 1.18e-02h  1
   4 -6.5643649e+02 9.93e+02 5.10e+01  -1.0 7.48e+03    -  1.79e-02 8.36e-03h  1
   5 -5.2650930e+02 9.73e+02 1.83e+01  -1.0 8.01e+03    -  1.53e-02 2.54e-02h  1
   6 -3.2750634e+02 9.45e+02 5.59e+01  -1.0 6.91e+03    -  7.26e-02 4.71e-02h  2
   7 -9.5657989e-01 9.02e+02 5.11e+01  -1.0 6.17e+03    -  1.30e-01 8.13e-02h  1
   8  1.7783127e+00 9.01e+02 1.13e+03  -1.0 4.71e+03    -  2.42e-01 7.56e-04h  1
   9  1.2590128e+01 9.00e+02 8.47e+03  -1.0 2.04e+05    -  1.02e-02 1.24e-03h  1
iter    objective    inf_pr   inf_du lg(mu)  ||d||  lg(rg) alpha_du alpha_pr  ls
  10  1.2691175e+01 9.00e+02 7.02e+04  -1.0 2.09e+05    -  2.03e-04 1.36e-05h  1
  11r 1.2691175e+01 9.00e+02 1.00e+03   3.0 0.00e+00    -  0.00e+00 3.21e-07R  3
  12r 1.5561769e+01 8.97e+02 1.13e+03   3.0 3.49e+06    -  4.54e-04 2.24e-06f  9
  13r 4.0038492e+02 4.38e+02 1.34e+03   1.6 3.77e+05    -  5.11e-03 1.44e-03f  1
  14r 4.0038492e+02 4.38e+02 9.99e+02   2.6 0.00e+00    -  0.00e+00 3.00e-07R  5
  15r 5.0301350e+02 2.00e+02 9.98e+02   2.6 1.84e+05    -  2.89e-05 1.30e-03f  1
  16  4.9579781e+02 1.98e+02 5.79e+01  -1.0 1.68e+02    -  4.08e-02 9.63e-03f  1
  17  5.4111665e+02 1.95e+02 5.72e+01  -1.0 4.71e+02    -  1.96e-02 1.45e-02h  1
  18  5.5130141e+02 1.94e+02 5.69e+01  -1.0 5.04e+02    -  6.40e-04 4.16e-03h  1
  19  5.5323006e+02 1.93e+02 5.66e+01  -1.0 2.28e+02    -  1.63e-03 5.35e-03h  1
iter    objective    inf_pr   inf_du lg(mu)  ||d||  lg(rg) alpha_du alpha_pr  ls
  20  5.5546459e+02 1.92e+02 5.63e+01  -1.0 5.10e+02    -  8.51e-03 5.19e-03h  1
  21  5.5616942e+02 1.92e+02 2.44e+02  -1.0 3.95e+03    -  2.44e-01 2.37e-04h  1
  22  5.5934081e+02 1.92e+02 2.51e+02  -1.0 1.71e+04    -  4.90e-03 3.44e-03h  1
  23  5.5945149e+02 1.90e+02 2.41e+02  -1.0 5.08e+03    -  4.97e-03 1.12e-02h  1
  24  5.5946286e+02 1.90e+02 1.31e+04  -1.0 4.94e+03    -  2.27e-01 1.12e-04h  1
  25  5.5953130e+02 1.90e+02 2.77e+07  -1.0 1.74e+02    -  9.08e-02 4.25e-05h  1
  26r 5.5953130e+02 1.90e+02 1.00e+03   2.3 0.00e+00    -  0.00e+00 2.84e-07R  4
  27r 6.6279518e+02 4.38e+01 9.98e+02   2.3 8.67e+04    -  2.62e-02 2.18e-03f  1
  28  6.6285580e+02 4.38e+01 6.52e+03  -1.0 1.89e+03    -  2.00e-01 3.05e-05h  1
  29  6.6292731e+02 4.38e+01 7.52e+07  -1.0 1.15e+03    -  1.37e-01 1.18e-05h  1
iter    objective    inf_pr   inf_du lg(mu)  ||d||  lg(rg) alpha_du alpha_pr  ls
  30r 6.6292731e+02 4.38e+01 1.00e+03   1.6 0.00e+00    -  0.00e+00 1.63e-07R  2
  31r 6.6192312e+02 4.38e+01 9.97e+02   1.6 3.74e+03    -  5.62e-03 3.67e-03f  1
  32r 6.5874284e+02 4.38e+01 1.27e+03   1.6 5.33e+02    -  7.33e-01 1.14e-02f  1
  33r 6.3023422e+02 4.38e+01 4.16e+02   1.6 4.64e+02    -  9.44e-01 6.74e-01f  1
  34r 6.2176681e+02 4.38e+01 5.26e-01   0.9 3.51e+02    -  1.00e+00 1.00e+00f  1
  35r 6.2279268e+02 4.38e+01 4.21e-02  -1.2 5.01e+00    -  9.77e-01 9.79e-01f  1
  36r 6.2401111e+02 4.38e+01 2.33e-04  -2.8 2.94e+01    -  1.00e+00 1.00e+00f  1
  37r 6.3013538e+02 4.38e+01 2.03e-05  -4.2 1.69e+02    -  1.00e+00 1.00e+00f  1
  38r 6.3625564e+02 4.38e+01 2.97e-06  -6.3 1.29e+02    -  9.99e-01 1.00e+00h  1
  39r 6.2618602e+02 4.38e+01 9.08e-06  -6.3 4.62e+02    -  9.17e-01 1.09e-01h  2
iter    objective    inf_pr   inf_du lg(mu)  ||d||  lg(rg) alpha_du alpha_pr  ls
  40r 6.3552723e+02 4.38e+01 2.83e-09  -6.3 3.64e+01    -  1.00e+00 1.00e+00h  1
  41r 6.3689453e+02 4.38e+01 1.37e-10  -6.3 4.29e+00    -  1.00e+00 1.00e+00h  1
  42r 6.3967555e+02 4.38e+01 1.88e-06  -9.0 1.41e+01    -  9.54e-01 1.00e+00h  1
  43r 6.4018900e+02 4.38e+01 2.83e-10  -9.0 1.71e+00    -  1.00e+00 1.00e+00h  1
  44r 6.4353424e+02 4.38e+01 2.27e-12  -9.0 1.71e+01    -  1.00e+00 1.00e+00h  1
  45r 6.4446823e+02 4.38e+01 1.14e-13  -9.0 4.85e+00    -  1.00e+00 1.00e+00h  1

Number of Iterations....: 45

                                   (scaled)                 (unscaled)
Objective...............:   3.3564831127041072e+02    6.4452531323389348e+02
Dual infeasibility......:   5.3706277526172023e+01    1.0312894235685657e+02
Constraint violation....:   4.3767997406192222e+01    4.3767997406192222e+01
Variable bound violation:   1.4499986207283655e-06    1.4499986207283655e-06
Complementarity.........:   9.1005602411571728e-10    1.7475259797479648e-09
Overall NLP error.......:   4.3767997406192222e+01    1.0312894235685657e+02


Number of objective function evaluations             = 75
Number of objective gradient evaluations             = 31
Number of equality constraint evaluations            = 75
Number of inequality constraint evaluations          = 75
Number of equality constraint Jacobian evaluations   = 51
Number of inequality constraint Jacobian evaluations = 51
Number of Lagrangian Hessian evaluations             = 46
Total seconds in IPOPT                               = 0.037

EXIT: Converged to a point of local infeasibility. Problem may be infeasible.
 
Ipopt 3.14.11: Converged to a locally infeasible point. Problem may be infeasible.
